% seed = 0

mint = 47;
% maxt = 248;

nActs = 92;
dur = [0,2,4,5,5,5,2,5,1,3,3,1,4,2,1,3,4,4,1,4,2,1,3,1,2,4,2,3,3,4,3,1,1,3,4,3,2,3,2,3,2,1,5,3,2,5,1,1,2,3,4,5,4,2,3,5,1,2,3,4,4,3,1,2,3,3,1,1,4,1,5,3,2,3,4,2,2,1,3,1,3,3,2,4,2,5,4,1,3,2,3,0];

nSkills = 12;
sreq = [| 0,0,0,0,0,0,0,0,0,0,0,0,
	| 0,0,1,0,1,1,0,0,1,0,0,0,
	| 0,1,1,0,0,0,1,0,1,0,0,0,
	| 0,2,0,0,0,3,0,0,0,0,0,0,
	| 0,0,0,0,0,1,0,0,1,0,0,0,
	| 0,0,1,0,0,2,0,1,0,0,1,0,
	| 0,0,0,0,1,0,0,0,0,0,0,0,
	| 0,0,1,2,0,0,1,0,0,1,0,0,
	| 0,0,0,0,0,1,0,0,0,0,1,0,
	| 0,0,1,0,0,2,0,0,0,0,1,1,
	| 0,0,0,0,0,0,0,0,1,0,0,0,
	| 0,0,0,0,0,0,1,1,0,1,0,0,
	| 0,0,0,0,0,1,1,0,0,0,0,0,
	| 0,0,0,1,0,0,0,0,0,0,0,0,
	| 0,0,0,0,1,1,1,0,0,0,1,1,
	| 0,0,1,1,0,0,0,0,2,0,0,1,
	| 0,0,1,1,0,1,0,1,0,0,1,0,
	| 0,0,0,0,0,0,1,0,1,0,0,0,
	| 0,0,0,0,0,0,1,0,0,0,0,0,
	| 0,0,0,0,0,0,0,0,0,1,0,0,
	| 0,1,0,1,0,0,0,0,0,0,1,0,
	| 0,0,1,1,0,0,0,0,1,0,1,1,
	| 0,0,1,1,1,0,1,0,1,0,0,0,
	| 0,0,0,0,0,0,0,0,0,1,0,0,
	| 0,1,1,0,0,1,0,0,1,0,0,1,
	| 0,0,1,1,0,1,0,0,0,0,1,0,
	| 0,0,0,0,0,0,0,0,1,0,0,0,
	| 0,0,0,0,1,1,0,0,1,1,0,1,
	| 0,0,0,0,0,0,0,0,1,0,0,0,
	| 1,0,0,0,0,0,0,0,0,0,0,0,
	| 0,1,1,0,0,0,1,0,1,0,0,0,
	| 0,1,0,0,1,1,0,1,0,0,1,0,
	| 0,0,1,0,0,1,1,0,0,0,1,0,
	| 0,0,0,0,0,0,1,0,0,1,0,1,
	| 0,0,1,0,1,0,0,0,0,0,0,0,
	| 0,0,1,1,0,0,0,0,0,0,0,0,
	| 0,1,0,0,0,0,0,0,0,0,0,0,
	| 0,0,0,0,0,0,0,1,0,0,0,0,
	| 0,0,1,0,0,0,0,0,0,0,0,0,
	| 0,0,0,0,1,1,0,0,0,0,0,0,
	| 0,0,0,0,0,1,0,0,1,0,1,0,
	| 0,0,0,0,0,0,0,0,0,1,0,0,
	| 0,0,0,0,0,0,0,0,0,1,0,0,
	| 0,0,0,0,1,0,1,1,0,1,0,0,
	| 0,0,1,0,1,1,0,0,1,0,0,0,
	| 0,0,0,0,0,0,0,2,0,0,0,0,
	| 0,0,0,0,0,0,0,0,0,0,1,0,
	| 0,0,2,0,0,0,0,0,1,0,0,1,
	| 0,0,1,0,0,0,0,0,0,0,0,0,
	| 0,0,0,0,0,0,0,0,0,0,0,1,
	| 0,0,0,0,0,1,0,0,0,0,0,0,
	| 0,0,0,0,1,1,0,0,1,0,0,0,
	| 0,1,1,0,0,2,0,0,1,0,0,0,
	| 0,0,0,0,0,1,0,0,1,0,0,0,
	| 0,1,2,0,0,0,0,1,1,0,0,0,
	| 0,0,0,2,0,0,0,1,0,0,0,1,
	| 0,0,0,0,0,1,0,0,0,0,0,0,
	| 1,0,1,0,1,1,0,0,0,0,1,0,
	| 0,0,1,1,1,1,0,0,0,0,0,0,
	| 0,1,0,0,0,2,0,0,0,0,0,0,
	| 0,0,1,0,1,1,0,1,0,0,0,0,
	| 0,0,0,0,0,0,0,0,0,1,0,0,
	| 0,0,0,0,0,1,0,0,1,0,0,0,
	| 0,0,1,0,0,1,0,1,0,0,0,0,
	| 0,0,0,0,1,1,0,0,1,2,0,0,
	| 0,0,0,1,1,1,0,0,0,0,0,0,
	| 0,0,1,0,0,0,0,0,0,0,0,1,
	| 0,0,1,0,0,1,0,1,0,0,0,1,
	| 0,0,1,0,0,0,0,0,1,0,0,0,
	| 1,0,0,0,1,0,1,0,0,0,0,0,
	| 0,0,1,0,1,0,1,0,1,0,1,0,
	| 0,1,2,0,0,0,0,0,2,0,0,0,
	| 0,0,1,0,0,1,0,0,1,0,0,0,
	| 1,0,1,0,0,0,0,1,0,1,0,0,
	| 0,0,1,1,0,1,0,0,1,1,0,0,
	| 0,0,0,0,0,0,0,0,0,1,0,1,
	| 0,2,0,0,0,0,0,0,0,0,1,0,
	| 1,0,0,0,1,0,0,0,1,0,0,0,
	| 0,0,1,0,0,1,0,0,0,0,0,0,
	| 0,0,1,1,0,0,0,0,1,0,1,0,
	| 0,0,0,1,0,0,1,0,0,0,0,0,
	| 0,0,0,0,0,0,1,2,1,0,0,0,
	| 0,0,2,0,0,0,0,0,0,0,0,0,
	| 1,0,0,0,0,0,0,0,0,0,0,0,
	| 0,1,0,0,0,0,0,0,1,0,1,0,
	| 0,0,1,0,1,1,1,1,0,0,0,0,
	| 0,1,0,0,0,1,0,0,1,0,0,0,
	| 0,1,0,0,1,0,0,1,0,0,0,0,
	| 0,0,0,0,0,0,0,1,0,0,1,0,
	| 0,0,0,0,0,1,0,0,0,0,0,0,
	| 0,0,0,0,1,0,0,1,0,0,0,0,
	| 0,0,0,0,0,0,0,0,0,0,0,0, |];

% SumOfsreq = 263;

nResources = 17;
mastery = [| false,false,false,false,false,true,false,false,false,false,false,false,
	| false,false,false,false,false,false,false,false,false,true,true,true,
	| false,false,true,false,false,false,false,false,false,false,false,false,
	| false,false,false,false,false,true,false,false,false,false,false,false,
	| false,true,true,false,false,false,false,false,false,false,false,false,
	| false,false,false,true,true,true,false,false,false,false,false,false,
	| false,false,false,false,false,false,false,false,true,false,false,false,
	| false,false,false,false,false,false,false,false,false,false,false,true,
	| false,false,false,true,true,true,false,false,false,false,false,false,
	| false,false,false,false,false,false,false,false,false,true,true,true,
	| false,false,false,false,false,false,true,true,true,false,false,false,
	| false,false,false,true,true,true,false,false,false,false,false,false,
	| false,false,false,true,true,true,false,true,true,false,false,false,
	| true,true,true,false,false,false,false,false,false,false,false,false,
	| false,false,true,false,false,false,true,true,true,true,true,true,
	| false,false,false,false,false,false,true,true,true,false,false,false,
	| false,false,true,false,false,false,false,false,false,false,false,false, |];

nPrecs = 194;
pred = [1,1,1,2,2,2,3,3,3,4,4,4,5,5,5,6,6,6,7,7,7,8,8,9,9,9,10,10,10,11,11,11,12,12,12,13,13,13,14,14,14,15,15,15,16,16,16,17,17,17,18,18,18,19,19,19,20,20,20,21,21,21,22,22,23,24,24,24,25,25,26,26,27,27,28,28,28,29,29,30,30,30,31,31,31,32,32,32,33,33,33,34,34,34,35,35,35,36,37,37,37,38,38,39,39,39,40,40,40,41,41,41,42,42,42,43,44,44,45,45,45,46,46,47,48,48,48,49,49,50,50,51,51,52,52,52,53,53,53,54,55,55,55,56,56,56,57,57,58,59,60,60,61,61,62,63,63,64,65,65,66,66,66,67,67,67,68,69,70,71,72,72,73,73,74,75,76,77,78,79,79,80,81,81,82,83,84,85,86,87,88,89,90,91];
succ = [2,3,4,72,7,8,9,51,5,50,11,31,10,6,24,17,34,42,12,22,23,29,38,24,14,16,27,67,43,35,85,56,25,21,13,49,18,15,17,67,32,19,20,48,49,50,28,41,57,77,41,60,30,57,65,45,44,54,47,60,36,45,29,54,26,77,30,32,68,37,28,30,60,31,33,68,40,70,78,50,37,55,36,63,39,52,38,39,53,45,46,35,43,56,89,46,63,41,87,70,71,73,80,58,59,64,65,61,53,52,44,46,57,67,87,73,84,53,75,54,55,62,47,61,74,83,56,83,79,82,64,58,66,59,69,71,74,91,70,76,81,74,62,59,61,63,84,62,69,66,66,85,79,71,64,65,76,69,75,80,76,68,78,73,78,72,81,80,85,81,75,79,90,83,86,77,87,86,82,91,88,86,82,84,88,89,88,89,90,91,90,92,92,92];

nUnrels = 2328;
unpred = [2,2,2,2,2,2,2,2,2,2,2,2,2,2,2,2,2,2,2,2,2,2,3,3,3,3,3,3,3,3,3,3,3,3,3,3,3,3,3,4,4,4,4,4,4,4,4,4,4,4,4,4,4,4,4,4,4,4,4,4,4,4,4,4,4,4,4,4,4,4,4,4,4,4,4,4,4,4,4,4,4,4,4,4,5,5,5,5,5,5,5,5,5,5,5,5,5,5,5,5,5,5,5,5,5,5,5,5,5,5,6,6,6,6,6,6,6,6,6,6,6,6,6,6,6,6,6,6,6,6,6,6,6,6,6,6,6,6,6,6,6,6,6,6,6,6,6,6,6,6,7,7,7,7,7,7,7,7,7,7,7,7,7,7,7,7,7,7,7,7,7,7,8,8,8,8,8,8,8,8,8,8,8,8,8,8,8,8,8,8,8,8,8,8,8,8,8,8,8,8,8,8,8,8,8,8,8,8,8,8,8,8,8,8,8,8,8,8,8,8,8,8,8,8,8,8,8,8,8,8,8,8,8,8,8,8,8,8,8,8,8,8,9,9,9,9,9,9,9,9,9,9,9,9,9,9,9,9,9,9,9,9,9,9,9,9,9,9,10,10,10,10,10,10,10,10,10,10,10,10,10,10,10,10,10,10,10,10,10,10,10,10,10,10,10,10,10,10,10,10,10,10,10,10,11,11,11,11,11,11,11,11,11,11,11,11,11,11,11,11,11,11,11,11,11,11,11,11,11,11,11,11,11,11,11,11,11,11,11,11,11,11,11,11,11,11,11,11,11,11,11,11,11,11,12,12,12,12,12,12,12,12,12,12,12,12,12,12,12,12,12,12,12,12,12,12,12,12,12,13,13,13,13,13,13,13,13,13,13,13,13,13,13,13,13,13,13,13,13,13,13,13,13,13,13,13,13,14,14,14,14,14,14,14,14,14,14,14,14,14,14,14,14,14,14,14,14,14,14,14,14,14,14,14,14,14,14,14,14,14,14,14,15,15,15,15,15,15,15,15,15,15,15,15,15,15,15,15,15,15,15,15,15,15,15,15,15,15,15,15,15,15,15,15,15,15,15,15,16,16,16,16,16,16,16,16,16,16,16,16,16,16,16,16,16,16,16,16,16,16,16,16,16,16,16,16,16,16,16,16,16,16,16,16,16,16,16,17,17,17,17,17,17,17,17,17,17,17,17,17,17,17,17,17,17,17,17,17,17,17,17,17,17,17,17,17,17,17,17,17,17,17,17,17,17,17,17,17,17,18,18,18,18,18,18,18,18,18,18,18,18,18,18,18,18,18,18,18,18,18,18,18,18,18,18,18,18,18,18,18,18,18,18,18,18,18,18,19,19,19,19,19,19,19,19,19,19,19,19,19,19,19,19,19,19,19,19,19,19,19,19,19,19,19,19,19,19,19,19,19,19,19,19,19,19,19,19,19,19,19,19,19,19,19,19,19,19,19,20,20,20,20,20,20,20,20,20,20,20,20,20,20,20,20,20,20,20,20,20,20,20,20,20,20,20,20,20,20,20,20,20,20,20,20,20,20,20,20,20,20,20,20,20,20,20,20,20,20,20,21,21,21,21,21,21,21,21,21,21,21,21,21,21,21,21,21,21,21,21,21,21,21,21,21,21,21,21,21,21,21,21,21,22,22,22,22,22,22,22,22,22,22,22,22,22,22,22,22,22,22,22,22,22,22,22,22,22,22,22,22,22,22,22,22,22,22,22,22,22,22,22,22,22,22,22,22,22,22,22,22,22,22,22,22,22,22,22,22,22,23,23,23,23,23,23,23,23,23,23,23,23,23,23,23,23,23,23,23,23,23,23,23,23,23,23,23,23,23,23,23,24,24,24,24,24,24,24,24,24,24,24,24,24,24,24,24,24,24,24,24,24,24,24,24,24,24,24,24,24,24,24,24,24,25,25,25,25,25,25,25,25,25,25,25,25,25,25,25,25,25,25,25,25,25,25,25,25,25,25,25,25,25,25,25,25,25,25,25,25,25,25,25,25,25,25,25,25,25,25,25,25,25,25,25,25,25,26,26,26,26,26,26,26,26,26,26,26,26,26,26,26,26,26,26,26,26,26,26,26,26,26,26,26,26,26,27,27,27,27,27,27,27,27,27,27,27,27,27,27,27,27,27,27,27,27,27,27,27,27,27,28,28,28,28,28,28,28,28,28,28,28,28,28,28,28,28,28,28,28,28,28,28,28,28,28,28,28,28,28,28,28,29,29,29,29,29,29,29,29,29,29,29,29,29,29,29,29,29,29,29,29,29,29,29,29,29,29,29,29,29,29,29,29,29,29,29,29,29,29,29,29,29,29,29,29,29,29,29,29,29,29,29,29,29,29,29,30,30,30,30,30,30,30,30,30,30,30,30,30,30,30,30,30,30,30,30,30,30,30,30,30,30,30,30,30,30,30,30,30,30,30,30,30,30,30,30,30,31,31,31,31,31,31,31,31,31,31,31,31,31,31,31,31,31,31,31,31,31,31,31,32,32,32,32,32,32,32,32,32,32,32,32,32,32,32,32,32,32,32,32,32,32,32,32,32,32,32,32,32,32,32,32,32,32,32,33,33,33,33,33,33,33,33,33,33,33,33,33,33,33,33,33,33,33,33,33,33,33,33,33,33,33,33,33,33,34,34,34,34,34,34,34,34,34,34,34,34,34,34,34,34,34,34,34,34,34,34,34,34,34,35,35,35,35,35,35,35,35,35,35,35,35,35,35,35,35,35,35,35,35,35,35,35,35,35,35,35,35,35,35,35,35,35,36,36,36,36,36,36,36,36,36,36,36,36,36,36,36,36,36,36,36,36,36,36,36,36,36,37,37,37,37,37,37,37,37,37,37,37,37,37,37,37,37,37,37,37,37,37,37,37,37,37,37,37,37,37,37,37,37,37,37,37,37,37,37,37,37,37,37,37,38,38,38,38,38,38,38,38,38,38,38,38,38,38,38,38,38,38,38,38,38,38,38,38,38,38,38,38,38,38,38,38,38,38,38,38,38,38,38,38,38,38,38,38,38,38,38,39,39,39,39,39,39,39,39,39,39,39,39,39,39,39,39,39,39,39,39,39,39,39,39,39,39,39,39,39,39,39,39,39,39,39,40,40,40,40,40,40,40,40,40,40,40,40,40,40,40,40,40,40,40,40,40,40,40,40,40,40,40,40,40,40,40,40,41,41,41,41,41,41,41,41,41,41,41,41,41,41,41,41,41,41,41,41,41,42,42,42,42,42,42,42,42,42,42,42,42,42,42,42,42,42,42,42,42,42,42,42,42,42,42,42,42,43,43,43,43,43,43,43,43,43,43,43,43,43,43,43,43,43,43,43,43,43,43,43,43,43,43,43,43,43,43,43,43,43,43,43,43,43,43,43,43,43,43,43,43,44,44,44,44,44,44,44,44,44,44,44,44,44,44,44,44,44,44,44,44,44,44,44,44,44,44,44,44,44,44,44,44,44,44,44,44,44,45,45,45,45,45,45,45,45,45,45,45,45,45,45,45,45,45,45,45,45,45,45,45,45,45,45,45,45,46,46,46,46,46,46,46,46,46,46,46,46,46,46,46,46,46,46,46,46,46,46,46,46,46,46,46,46,46,46,47,47,47,47,47,47,47,47,47,47,47,47,47,47,47,47,47,47,47,47,47,47,47,47,47,47,47,47,47,47,47,47,47,47,47,48,48,48,48,48,48,48,48,48,48,48,48,48,48,48,48,48,48,49,49,49,49,49,49,49,49,49,49,49,49,49,49,49,49,49,49,49,49,49,49,49,49,49,49,49,49,49,49,49,49,49,49,49,49,50,50,50,50,50,50,50,50,50,50,50,50,50,50,50,50,50,50,50,50,50,50,50,50,50,50,50,50,50,50,50,50,50,50,51,51,51,51,51,51,51,51,51,51,51,51,51,51,51,51,51,51,51,51,51,51,51,51,51,52,52,52,52,52,52,52,52,52,52,52,52,52,52,52,52,52,52,52,52,52,52,52,53,53,53,53,53,53,53,53,53,53,53,53,53,53,53,53,53,53,53,53,53,53,53,53,53,53,53,53,53,53,53,54,54,54,54,54,54,54,54,54,54,54,54,54,54,54,54,54,54,54,54,54,54,54,54,54,54,54,54,54,54,54,54,54,54,55,55,55,55,55,55,55,55,55,55,55,55,55,55,55,55,55,55,55,55,55,55,55,55,55,56,56,56,56,56,56,56,56,56,56,56,56,56,56,57,57,57,57,57,57,57,57,57,57,57,57,57,57,57,57,57,57,57,57,57,57,57,57,57,57,58,58,58,58,58,58,58,58,58,58,58,58,58,58,58,58,58,58,58,58,58,58,58,58,58,58,58,58,58,59,59,59,59,59,59,59,59,59,59,59,59,59,59,59,59,59,59,59,59,59,60,60,60,60,60,60,60,60,60,60,60,60,60,60,60,60,60,60,61,61,61,61,61,61,61,61,61,61,61,61,61,61,61,61,61,61,61,61,61,61,62,62,62,62,62,62,62,62,62,62,62,62,62,62,62,62,62,62,62,62,62,62,62,62,63,63,63,63,63,63,63,63,63,63,63,63,63,63,63,63,63,63,63,64,64,64,64,64,64,64,64,64,64,64,64,64,64,64,64,64,64,64,64,64,64,64,65,65,65,65,65,65,65,65,65,65,65,65,65,65,65,65,65,65,65,65,65,66,66,66,66,66,66,66,66,66,66,66,66,66,66,66,67,67,67,67,67,67,67,67,67,67,67,68,68,68,68,68,68,68,68,68,68,68,68,68,68,68,68,68,68,69,69,69,69,69,69,69,69,69,69,69,69,69,69,69,69,69,69,69,70,70,70,70,70,70,70,70,70,70,70,70,70,70,70,70,70,70,70,71,71,71,71,71,71,71,71,71,71,71,71,71,71,71,72,72,72,72,72,72,72,72,72,72,72,72,73,73,73,73,73,73,73,73,73,73,73,73,73,73,73,74,74,74,74,74,74,74,74,74,74,74,74,74,74,74,75,75,75,75,75,75,75,75,75,75,75,75,75,76,76,76,76,76,76,76,76,76,76,76,76,76,77,77,77,77,77,77,77,77,77,77,77,77,78,78,78,78,78,78,78,78,78,78,79,79,79,79,79,79,79,79,79,80,80,80,80,80,80,80,80,80,81,81,81,81,81,81,82,82,82,82,82,82,82,83,83,83,83,83,83,83,84,84,84,84,84,85,85,85,85,85,86,86,86,86,87,87,87,88,88,89,89,90];
unsucc = [3,4,5,6,9,10,11,14,16,17,24,27,31,32,34,35,39,42,43,51,58,67,4,7,8,11,12,13,15,18,19,20,21,22,23,25,26,29,48,5,6,7,8,9,10,12,13,14,15,16,17,18,19,20,21,22,23,24,25,26,27,28,29,30,32,33,34,37,38,40,42,43,45,48,49,51,54,55,57,60,67,72,73,83,7,8,9,11,12,13,14,15,16,18,19,20,21,22,23,25,26,28,29,33,40,45,48,49,51,54,7,8,9,10,11,12,13,14,15,16,18,19,20,21,22,23,24,25,26,27,28,29,30,31,32,33,36,37,38,39,40,45,48,49,50,51,54,55,58,60,8,9,10,11,14,16,17,24,27,31,32,34,35,38,39,42,43,51,58,67,72,73,9,10,11,12,13,14,15,16,17,18,19,20,21,22,23,24,25,26,27,28,30,31,32,33,34,35,36,37,39,40,41,42,43,44,45,46,47,48,49,50,51,52,53,54,55,56,57,58,59,60,61,62,63,64,65,66,67,68,69,71,72,74,75,76,77,79,81,84,87,91,10,11,12,13,15,18,19,20,21,22,23,25,26,27,29,31,34,35,36,42,43,48,51,56,60,63,11,12,13,14,15,16,17,18,19,20,21,22,23,24,25,26,28,29,30,32,33,34,35,37,38,40,42,45,48,49,50,51,54,55,56,57,12,13,14,15,16,17,18,19,20,21,22,23,24,25,26,27,28,29,30,31,32,33,34,36,37,38,39,40,41,42,43,44,45,48,49,50,51,52,53,54,55,57,58,60,67,70,72,73,74,83,14,16,17,22,23,24,26,27,28,29,31,32,33,34,35,38,39,40,42,43,51,58,67,72,73,14,16,17,21,22,23,24,25,26,27,28,29,31,32,33,34,35,36,38,39,40,42,43,51,58,67,72,73,15,16,18,19,20,21,22,23,24,25,26,27,28,29,30,31,33,34,35,36,37,40,42,43,45,48,49,50,51,54,55,56,60,63,65,16,17,18,21,22,23,24,25,26,27,28,29,30,31,32,33,34,35,36,37,38,39,40,41,42,43,46,49,50,51,52,58,60,67,72,73,17,18,19,20,21,22,23,24,25,26,27,29,30,31,32,34,35,36,37,38,39,41,42,43,44,48,51,52,56,57,58,59,60,63,66,67,72,73,78,18,19,20,21,22,23,24,25,26,27,28,29,30,31,32,33,34,35,36,37,38,39,40,42,43,45,48,49,50,51,54,55,56,58,60,63,65,67,72,73,75,83,19,20,21,22,23,24,25,26,27,28,29,31,32,33,34,35,36,38,39,40,42,43,45,48,49,51,54,56,57,58,63,65,67,72,73,75,77,83,20,21,22,23,24,25,26,27,28,29,30,31,32,33,34,35,36,37,38,39,40,41,42,43,44,46,47,48,49,50,51,52,53,56,58,59,60,61,63,66,67,68,70,71,72,73,78,79,83,85,89,21,22,23,24,25,26,27,28,29,30,31,32,33,34,35,36,37,38,39,40,41,42,43,45,46,48,49,50,51,52,55,56,57,58,59,60,62,63,64,65,66,67,68,69,72,73,75,77,78,80,83,22,23,24,25,26,27,28,29,30,31,32,33,34,35,37,38,39,40,42,43,48,49,50,51,56,57,58,63,65,67,72,73,83,23,24,25,26,27,28,30,31,32,33,34,35,36,37,38,39,40,41,42,43,44,45,46,47,48,49,50,51,52,53,55,56,57,58,59,60,61,62,63,64,65,66,67,68,69,71,72,73,74,75,77,79,80,81,83,84,86,24,25,27,29,31,32,34,35,36,38,39,41,42,43,44,48,49,51,52,56,57,58,59,60,63,66,67,72,73,78,83,25,26,27,28,29,31,33,34,35,36,40,41,42,43,44,45,46,47,48,49,51,53,54,56,57,60,61,63,65,67,72,75,79,26,27,28,29,30,31,32,33,34,35,36,38,39,40,41,42,43,44,45,46,47,48,49,50,51,52,53,54,55,56,57,58,59,60,61,62,63,64,65,66,67,69,72,73,74,75,76,77,78,79,80,83,86,27,29,31,32,34,35,36,38,39,41,42,43,44,48,49,51,52,56,57,58,59,60,63,66,67,72,73,78,83,28,29,30,32,33,34,35,37,38,40,42,43,45,48,49,50,51,54,55,56,57,67,72,73,83,29,30,31,32,34,35,36,37,38,39,41,42,43,44,48,49,50,51,52,56,57,58,59,60,63,66,67,72,73,78,83,30,31,32,33,34,35,36,37,38,39,40,41,42,43,44,45,46,47,48,49,50,51,52,53,54,55,56,57,58,59,60,61,62,63,64,65,66,67,68,69,71,72,73,74,75,76,77,79,80,81,83,84,86,87,91,31,32,33,34,35,36,38,39,40,41,42,43,44,45,46,47,48,49,51,52,53,54,56,57,58,59,60,61,63,65,66,67,68,72,73,75,76,77,78,79,83,32,33,34,35,37,38,40,42,43,45,48,49,50,51,54,55,56,57,60,67,72,73,83,33,34,35,36,37,40,41,42,43,44,45,46,47,48,49,50,51,53,54,55,56,57,60,61,62,63,65,67,70,72,74,75,77,79,85,34,35,36,37,38,39,40,41,42,43,44,48,49,50,51,52,56,57,58,59,60,63,65,66,67,68,72,73,78,83,36,37,38,39,40,41,42,44,45,48,49,50,51,52,53,54,55,57,58,60,67,70,72,74,85,36,37,38,39,40,41,42,43,44,45,48,49,50,51,52,53,54,55,56,57,58,59,60,66,67,68,70,72,73,74,78,83,85,37,38,39,40,42,43,45,48,49,50,51,54,55,56,57,58,60,63,65,67,72,73,75,77,83,38,39,40,41,42,43,44,45,46,47,48,49,50,51,52,53,54,55,56,57,58,59,60,61,62,63,64,65,66,67,68,69,72,73,74,75,76,77,78,79,80,83,86,39,40,41,42,43,44,45,46,47,48,49,50,51,52,53,54,55,56,57,58,59,60,61,62,63,64,65,66,67,68,69,70,71,72,74,75,76,77,78,79,81,82,84,85,87,88,91,40,41,42,43,44,45,46,47,48,49,50,51,52,53,54,55,56,57,60,61,62,63,65,67,70,71,72,73,74,75,77,79,83,85,89,41,42,43,44,45,46,47,48,49,50,51,52,54,55,56,57,58,59,60,62,63,64,66,67,68,69,72,73,76,78,83,87,42,43,45,48,49,50,51,54,55,56,57,58,60,63,65,67,72,73,75,77,83,43,44,45,46,47,48,49,50,51,52,53,54,55,56,58,59,60,61,63,65,66,68,70,71,74,76,81,85,44,45,46,47,48,49,50,51,52,53,54,55,56,57,58,59,60,61,62,63,64,65,66,67,68,69,70,71,72,74,75,76,77,78,79,80,81,82,84,85,86,87,88,91,45,46,47,48,49,50,51,52,54,55,56,57,58,59,60,61,62,63,64,65,66,67,68,69,71,72,73,75,76,77,78,79,80,81,82,83,87,46,47,48,49,50,51,52,53,56,57,58,59,60,61,63,65,66,67,68,70,71,72,73,78,79,83,85,89,48,49,50,51,52,53,54,55,56,57,58,59,60,63,65,66,67,68,70,72,73,74,75,76,77,78,83,85,87,89,48,49,50,51,52,53,54,55,56,57,58,59,60,62,63,64,65,66,67,68,69,70,72,73,74,75,76,77,78,80,83,85,86,87,89,49,50,51,52,53,54,55,57,58,60,62,64,67,69,70,72,73,85,50,51,52,53,54,55,56,57,58,59,60,61,62,63,64,65,66,67,68,69,70,71,72,73,74,75,76,77,78,80,81,82,84,85,86,87,51,52,53,54,55,56,57,58,59,60,61,62,63,65,66,67,68,70,71,72,73,74,75,76,77,78,79,81,83,84,85,87,89,91,52,53,54,55,56,57,59,60,61,62,63,64,65,67,70,71,72,73,74,75,77,79,83,85,89,53,54,55,56,57,58,60,61,62,63,64,65,67,70,72,73,74,75,77,79,83,85,89,54,55,56,57,58,59,60,61,62,63,64,65,66,67,68,69,71,72,73,75,76,77,78,79,80,81,82,83,84,87,88,55,56,57,58,59,60,61,62,63,64,65,66,67,68,69,70,71,72,73,74,75,77,78,79,80,81,82,83,84,85,86,88,89,90,56,57,58,59,60,61,63,65,66,67,68,70,71,72,73,75,76,77,78,79,83,85,87,89,91,57,58,60,62,64,67,69,70,72,73,74,83,85,89,58,59,60,61,63,65,66,67,68,70,71,72,73,74,75,76,77,78,79,81,82,83,85,87,89,91,59,60,61,62,63,64,65,66,67,68,70,71,72,73,74,75,76,77,78,79,81,82,83,84,85,87,88,89,91,60,61,62,63,64,65,67,69,70,71,72,73,74,75,77,79,80,83,85,86,89,61,62,63,64,65,67,69,70,71,72,73,74,75,77,79,80,83,86,62,63,64,65,66,67,68,69,70,72,73,74,75,76,77,78,80,83,85,86,87,89,63,65,66,67,68,70,71,72,73,74,75,76,77,78,79,81,82,83,84,85,87,88,89,91,64,66,67,68,69,70,71,72,73,74,78,79,81,82,83,84,85,88,89,65,66,67,68,70,71,72,73,74,75,76,77,78,79,81,82,83,84,85,87,88,89,91,66,67,68,69,70,71,72,73,74,76,78,79,81,82,83,84,85,87,88,89,91,67,69,70,71,72,73,74,75,77,79,80,83,85,86,89,68,69,70,71,74,76,80,81,84,85,87,69,70,71,72,73,74,75,76,77,78,79,80,83,85,86,87,89,91,70,71,72,73,74,75,76,77,78,79,81,82,83,84,85,87,88,89,91,71,72,73,74,75,76,77,78,79,80,81,82,83,84,86,87,88,90,91,72,73,74,75,76,77,78,79,80,83,85,86,87,89,91,73,74,76,78,80,81,82,83,84,85,87,89,74,75,76,77,78,79,80,81,82,84,85,86,87,88,91,75,76,77,78,79,80,81,82,83,84,85,87,88,89,91,76,78,79,80,81,82,83,84,85,87,88,89,91,77,78,79,80,81,82,83,84,85,86,88,89,90,78,79,80,81,82,83,84,85,87,88,89,91,79,80,81,83,84,85,86,87,89,91,80,81,82,83,84,85,86,87,89,81,82,83,84,85,87,88,89,91,83,85,86,87,89,91,83,84,85,86,87,89,91,84,85,86,87,88,90,91,85,86,87,89,91,86,87,88,90,91,87,88,89,91,88,89,90,89,91,90,91,91];

USEFUL_RES = [{},
	{1,3,4,5,6,7,9,11,12,13,14,15,16,17},
	{3,5,7,11,13,14,15,16,17},
	{1,4,5,6,9,12,13,14},
	{1,4,6,7,9,11,12,13,15,16},
	{1,2,3,4,5,6,9,10,11,12,13,14,15,16,17},
	{6,9,12,13},
	{2,3,5,6,9,10,11,12,13,14,15,16,17},
	{1,2,4,6,9,10,12,13,15},
	{1,2,3,4,5,6,8,9,10,12,13,14,15,17},
	{7,11,13,15,16},
	{2,10,11,13,15,16},
	{1,4,6,9,11,12,13,15,16},
	{6,9,12,13},
	{1,2,4,6,8,9,10,11,12,13,15,16},
	{2,3,5,6,7,8,9,10,11,12,13,14,15,16,17},
	{1,2,3,4,5,6,9,10,11,12,13,14,15,16,17},
	{7,11,13,15,16},
	{11,15,16},
	{2,10,15},
	{2,5,6,9,10,12,13,14,15},
	{2,3,5,6,7,8,9,10,11,12,13,14,15,16,17},
	{3,5,6,7,9,11,12,13,14,15,16,17},
	{2,10,15},
	{1,2,3,4,5,6,7,8,9,10,11,12,13,14,15,16,17},
	{1,2,3,4,5,6,9,10,12,13,14,15,17},
	{7,11,13,15,16},
	{1,2,4,6,7,8,9,10,11,12,13,15,16},
	{7,11,13,15,16},
	{14},
	{3,5,7,11,13,14,15,16,17},
	{1,2,4,5,6,9,10,11,12,13,14,15,16},
	{1,2,3,4,5,6,9,10,11,12,13,14,15,16,17},
	{2,8,10,11,15,16},
	{3,5,6,9,12,13,14,15,17},
	{3,5,6,9,12,13,14,15,17},
	{5,14},
	{11,13,15,16},
	{3,5,14,15,17},
	{1,4,6,9,12,13},
	{1,2,4,6,7,9,10,11,12,13,15,16},
	{2,10,15},
	{2,10,15},
	{2,6,9,10,11,12,13,15,16},
	{1,3,4,5,6,7,9,11,12,13,14,15,16,17},
	{11,13,15,16},
	{2,10,15},
	{2,3,5,7,8,10,11,13,14,15,16,17},
	{3,5,14,15,17},
	{2,8,10,15},
	{1,4,6,9,12,13},
	{1,4,6,7,9,11,12,13,15,16},
	{1,3,4,5,6,7,9,11,12,13,14,15,16,17},
	{1,4,6,7,9,11,12,13,15,16},
	{3,5,7,11,13,14,15,16,17},
	{2,6,8,9,10,11,12,13,15,16},
	{1,4,6,9,12,13},
	{1,2,3,4,5,6,9,10,12,13,14,15,17},
	{1,3,4,5,6,9,12,13,14,15,17},
	{1,4,5,6,9,12,13,14},
	{1,3,4,5,6,9,11,12,13,14,15,16,17},
	{2,10,15},
	{1,4,6,7,9,11,12,13,15,16},
	{1,3,4,5,6,9,11,12,13,14,15,16,17},
	{1,2,4,6,7,9,10,11,12,13,15,16},
	{1,4,6,9,12,13},
	{2,3,5,8,10,14,15,17},
	{1,2,3,4,5,6,8,9,10,11,12,13,14,15,16,17},
	{3,5,7,11,13,14,15,16,17},
	{6,9,11,12,13,14,15,16},
	{2,3,5,6,7,9,10,11,12,13,14,15,16,17},
	{3,5,7,11,13,14,15,16,17},
	{1,3,4,5,6,7,9,11,12,13,14,15,16,17},
	{2,3,5,10,11,13,14,15,16,17},
	{1,2,3,4,5,6,7,9,10,11,12,13,14,15,16,17},
	{2,8,10,15},
	{2,5,10,14,15},
	{6,7,9,11,12,13,14,15,16},
	{1,3,4,5,6,9,12,13,14,15,17},
	{2,3,5,6,7,9,10,11,12,13,14,15,16,17},
	{6,9,11,12,13,15,16},
	{7,11,13,15,16},
	{3,5,14,15,17},
	{14},
	{2,5,7,10,11,13,14,15,16},
	{1,3,4,5,6,9,11,12,13,14,15,16,17},
	{1,4,5,6,7,9,11,12,13,14,15,16},
	{5,6,9,11,12,13,14,15,16},
	{2,10,11,13,15,16},
	{1,4,6,9,12,13},
	{6,9,11,12,13,15,16},
	{}];

POTENTIAL_ACT = [{2,4,5,6,9,10,13,15,17,25,26,28,32,33,40,41,45,51,52,53,54,57,58,59,60,61,63,64,65,66,68,73,75,79,86,87,90},
	{6,8,9,10,12,15,16,17,20,21,22,24,25,26,28,32,33,34,41,42,43,44,47,48,50,56,58,62,65,67,68,71,74,75,76,77,80,85,89},
	{2,3,6,8,10,16,17,22,23,25,26,31,33,35,36,39,45,48,49,53,55,58,59,61,64,67,68,69,71,72,73,74,75,79,80,83,86},
	{2,4,5,6,9,10,13,15,17,25,26,28,32,33,40,41,45,51,52,53,54,57,58,59,60,61,63,64,65,66,68,73,75,79,86,87,90},
	{2,3,4,6,8,10,16,17,21,22,23,25,26,31,32,33,35,36,37,39,45,48,49,53,55,58,59,60,61,64,67,68,69,71,72,73,74,75,77,79,80,83,85,86,87,88},
	{2,4,5,6,7,8,9,10,13,14,15,16,17,21,22,23,25,26,28,32,33,35,36,40,41,44,45,51,52,53,54,56,57,58,59,60,61,63,64,65,66,68,70,71,73,75,78,79,80,81,86,87,88,90,91},
	{2,3,5,11,16,18,22,23,25,27,28,29,31,41,45,48,52,53,54,55,63,65,69,71,72,73,75,78,80,82,85,87},
	{10,15,16,22,25,28,34,48,50,56,67,68,76},
	{2,4,5,6,7,8,9,10,13,14,15,16,17,21,22,23,25,26,28,32,33,35,36,40,41,44,45,51,52,53,54,56,57,58,59,60,61,63,64,65,66,68,70,71,73,75,78,79,80,81,86,87,88,90,91},
	{6,8,9,10,12,15,16,17,20,21,22,24,25,26,28,32,33,34,41,42,43,44,47,48,50,56,58,62,65,67,68,71,74,75,76,77,80,85,89},
	{2,3,5,6,8,11,12,13,15,16,17,18,19,22,23,25,27,28,29,31,32,33,34,38,41,44,45,46,48,52,53,54,55,56,61,63,64,65,68,69,70,71,72,73,74,75,78,80,81,82,85,86,87,88,89,91},
	{2,4,5,6,7,8,9,10,13,14,15,16,17,21,22,23,25,26,28,32,33,35,36,40,41,44,45,51,52,53,54,56,57,58,59,60,61,63,64,65,66,68,70,71,73,75,78,79,80,81,86,87,88,90,91},
	{2,3,4,5,6,7,8,9,10,11,12,13,14,15,16,17,18,21,22,23,25,26,27,28,29,31,32,33,35,36,38,40,41,44,45,46,48,51,52,53,54,55,56,57,58,59,60,61,63,64,65,66,68,69,70,71,72,73,74,75,78,79,80,81,82,85,86,87,88,89,90,91},
	{2,3,4,6,8,10,16,17,21,22,23,25,26,30,31,32,33,35,36,37,39,45,48,49,53,55,58,59,60,61,64,67,68,69,70,71,72,73,74,75,77,78,79,80,83,84,85,86,87,88},
	{2,3,5,6,8,9,10,11,12,13,15,16,17,18,19,20,21,22,23,24,25,26,27,28,29,31,32,33,34,35,36,38,39,41,42,43,44,45,46,47,48,49,50,52,53,54,55,56,58,59,61,62,63,64,65,67,68,69,70,71,72,73,74,75,76,77,78,79,80,81,82,83,85,86,87,88,89,91},
	{2,3,5,6,8,11,12,13,15,16,17,18,19,22,23,25,27,28,29,31,32,33,34,38,41,44,45,46,48,52,53,54,55,56,61,63,64,65,68,69,70,71,72,73,74,75,78,80,81,82,85,86,87,88,89,91},
	{2,3,6,8,10,16,17,22,23,25,26,31,33,35,36,39,45,48,49,53,55,58,59,61,64,67,68,69,71,72,73,74,75,79,80,83,86}];
